10 5002 5034 9
11 5002 5825 19
12 5002 5947 42
13 5002 6614 83
14 5002 7118 147
15 5002 7118 304
16 5002 7453 532
17 5002 7637 1043
18 5002 7957 1840
19 5002 8711 3458
20 5002 8966 6107
21 5002 9377 10731
22 5002 9377 18327
23 5002 9377 33393
24 5002 10077 53536
25 5002 10077 90602
26 5002 10564 153464
27 5002 10778 242715
28 5002 10905 402626
29 5002 10905 621455
30 5002 10905 951567
31 5002 11823 1519218
32 5002 11823 2486855
33 5002 12731 4327793
34 5002 12731 7007983
35 5002 13167 11112892
36 5002 13658 18505820
37 5002 13919 32776124
38 5002 14850 82791823
